750
[154,155,158,184,185,202,203,209,216,218,232,240,248,252,255,304,307,312,340,345,348,349,352,366,367,375,385,388,394,398,405,413,440,443,444,445,461,481,499,500,543,547,552,563,569,575,588,597]
[1,1,1,1,1,1,1,1,1,1,1,1,1,1,1,1,1,1,1,2,1,1,1,1,1,1,1,1,1,1,1,1,1,1,1,1,1,2,1,1,1,1,1,1,1,1,1,1]
